
    NAME: distance-matrix-tsp

    TYPE: TSP

    COMMENT: Test for distance matrix using Linkern algorithm (Klock and Cappelletti)

DIMENSION: 10

EDGE_WEIGHT_TYPE: EXPLICIT

EDGE_WEIGHT_FORMAT: UPPER_ROW

EDGE_WEIGHT_SECTION
1 1 1 1 1 1 1 1 1 1 
1 1 1 1 1 1 1 1 1 
1 1 1 1 1 1 1 1 
1 1 1 1 1 1 1 
1 1 1 1 1 1 
1 1 1 1 1 
1 1 1 1 
1 1 1 
1 1 
1 

EOF
